Route #1: 42 26 2 19 31 21 43 
Route #2: 24 13 51 23 18 50 16 20 35 33 47 39 
Route #3: 36 34 44 8 6 9 28 11 
Route #4: 41 4 32 25 29 12 22 40 15 46 5 
Route #5: 27 14 10 17 49 3 
Route #6: 37 7 45 30 52 38 
Route #7: 48 
cost 772.007
